Data path: /scratch/opt/lxu/CFLG/benchmarks/tree_A
Instance: treeA.150.22
Result path: /scratch/opt/lxu/CFLG/results/tree_A
Solver: Gurobi
Time limit: 7200
Formulation: LEFPAV
Cover: Large
julia --project=. src/main.jl /scratch/opt/lxu/CFLG/benchmarks/tree_A treeA.150.22 /scratch/opt/lxu/CFLG/results/tree_A Gurobi 7200 LEFPAV Large
The latest version of Julia in the `release` channel is 1.11.6+0.x64.linux.gnu. You currently have `1.11.4+0.x64.linux.gnu` installed. Run:

  juliaup update

in your terminal shell to install Julia 1.11.6+0.x64.linux.gnu and update the `release` channel to that version.
/scratch/opt/lxu/CFLG/benchmarks/tree_A Gurobi 7200.0 /scratch/opt/lxu/CFLG/results/tree_A treeA.150.22 LEFPAV Large
/scratch/opt/lxu/CFLG/benchmarks/tree_A/treeA.150.22

 read graph
data loaded

problem_graph/original graph: node: 150/150 edge: 171/171 dlt: 2.988029476941413 break_avg_len: 1.4940147384707065 break_max_len: 1.9985412083752911Vbar/V, Ebar/E(93, 150, 114, 171)
Set parameter TokenServer to value "solice01.zib.de"
Set parameter Threads to value 1
Set parameter OutputFlag to value 1
Gurobi Optimizer version 12.0.1 build v12.0.1rc0 (linux64 - "Debian GNU/Linux 12 (bookworm)")

CPU model: Intel(R) Xeon(R) Gold 5122 CPU @ 3.60GHz, instruction set [SSE2|AVX|AVX2|AVX512]
Thread count: 8 physical cores, 16 logical processors, using up to 1 threads

Non-default parameters:
Threads  1

Optimize a model with 263 rows, 426 columns and 710 nonzeros
Model fingerprint: 0xa0cf1889
Coefficient statistics:
  Matrix range     [1e+00, 1e+00]
  Objective range  [1e+00, 1e+00]
  Bounds range     [1e+00, 1e+00]
  RHS range        [1e+00, 1e+00]
Presolve removed 140 rows and 182 columns
Presolve time: 0.00s
Presolved: 123 rows, 244 columns, 388 nonzeros

Iteration    Objective       Primal Inf.    Dual Inf.      Time
       0    1.4200000e+02   6.400000e+01   0.000000e+00      0s
      47    9.3000000e+01   0.000000e+00   0.000000e+00      0s

Solved in 47 iterations and 0.00 seconds (0.00 work units)
Optimal objective  9.300000000e+01

User-callback calls 126, time in user-callback 0.00 sec
elapsed CPU time: 1.060741 seconds
Set parameter TokenServer to value "solice01.zib.de"
Set parameter Threads to value 1
Set parameter OutputFlag to value 1
Set parameter MIPGap to value 0.0001
Set parameter TimeLimit to value 7198.939259

 more cuts: false 2.988029476941413 false
is_attach:trueformulation:LEFPAV0 142 121
Set parameter PreCrush to value 1

 model loaded

Gurobi Optimizer version 12.0.1 build v12.0.1rc0 (linux64 - "Debian GNU/Linux 12 (bookworm)")

CPU model: Intel(R) Xeon(R) Gold 5122 CPU @ 3.60GHz, instruction set [SSE2|AVX|AVX2|AVX512]
Thread count: 8 physical cores, 16 logical processors, using up to 1 threads

Non-default parameters:
TimeLimit  7198.939259
PreCrush  1
Threads  1

Optimize a model with 4397 rows, 2268 columns and 12048 nonzeros
Model fingerprint: 0x526caac2
Variable types: 405 continuous, 1863 integer (1863 binary)
Coefficient statistics:
  Matrix range     [1e-06, 4e+00]
  Objective range  [1e+00, 1e+00]
  Bounds range     [2e-02, 2e+00]
  RHS range        [2e-02, 5e+00]
Found heuristic solution: objective 55.0000000
Presolve removed 1996 rows and 827 columns
Presolve time: 0.09s
Presolved: 2401 rows, 1441 columns, 10948 nonzeros
Variable types: 219 continuous, 1222 integer (1222 binary)

Root relaxation: objective 2.636453e+01, 1404 iterations, 0.03 seconds (0.03 work units)

    Nodes    |    Current Node    |     Objective Bounds      |     Work
 Expl Unexpl |  Obj  Depth IntInf | Incumbent    BestBd   Gap | It/Node Time

     0     0   26.36453    0  255   55.00000   26.36453  52.1%     -    0s
H    0     0                      38.0000000   26.36453  30.6%     -    0s
H    0     0                      37.0000000   26.36453  28.7%     -    0s
elapsed CPU time: 4.6161896180552295e12 seconds
     0     0   28.07263    0  229   37.00000   28.07263  24.1%     -    0s
H    0     0                      36.0000000   28.07263  22.0%     -    0s
elapsed CPU time: 1.3835890716296879e13 seconds
     0     0   29.00000    0  188   36.00000   29.00000  19.4%     -    0s
elapsed CPU time: 0.005405 seconds
     0     0   29.00000    0  201   36.00000   29.00000  19.4%     -    0s
elapsed CPU time: 9.228708297496861e12 seconds
     0     0   29.00000    0  179   36.00000   29.00000  19.4%     -    0s
H    0     0                      35.0000000   29.00000  17.1%     -    0s
H    0     0                      34.0000000   29.00000  14.7%     -    0s
elapsed CPU time: 9.218035776212703e12 seconds
     0     0   29.00000    0  203   34.00000   29.00000  14.7%     -    0s
elapsed CPU time: 9.22799723130127e12 seconds
     0     0   29.00000    0   84   34.00000   29.00000  14.7%     -    0s
H    0     0                      33.0000000   29.00000  12.1%     -    0s
elapsed CPU time: 4.607182418800022e12 seconds
     0     0   29.00000    0  101   33.00000   29.00000  12.1%     -    0s
elapsed CPU time: 1.3824224369645195e13 seconds
     0     0   29.00000    0   94   33.00000   29.00000  12.1%     -    0s
elapsed CPU time: 0.005218 seconds
     0     0   29.00000    0   81   33.00000   29.00000  12.1%     -    1s
elapsed CPU time: 0.005205 seconds
     0     0   29.00000    0   74   33.00000   29.00000  12.1%     -    1s
H    0     0                      32.0000000   29.00000  9.37%     -    1s
elapsed CPU time: 4.627966976726144e12 seconds
     0     0   29.00000    0   74   32.00000   29.00000  9.37%     -    1s
elapsed CPU time: 0.005331 seconds
     0     0   29.00000    0   71   32.00000   29.00000  9.37%     -    1s
elapsed CPU time: 0.005234 seconds
     0     0   29.00000    0  100   32.00000   29.00000  9.37%     -    1s
elapsed CPU time: 0.005203 seconds
elapsed CPU time: 0.005169 seconds
     0     2   29.00000    0   84   32.00000   29.00000  9.37%     -    1s
H  137    35                      31.0000000   29.35714  5.30%  53.6    1s
H  338     3                      30.0000000   30.00000  0.00%  50.5    2s

Cutting planes:
  User: 23
  Learned: 3
  Gomory: 5
  Cover: 37
  Implied bound: 41
  Clique: 10
  MIR: 71
  StrongCG: 1
  GUB cover: 10
  Zero half: 3
  RLT: 7
  Relax-and-lift: 12
  BQP: 8
  PSD: 3

Explored 339 nodes (28748 simplex iterations) in 2.05 seconds (1.19 work units)
Thread count was 1 (of 16 available processors)

Solution count 10: 30 31 32 ... 55

Optimal solution found (tolerance 1.00e-04)
Best objective 3.000000000000e+01, best bound 3.000000000000e+01, gap 0.0000%

User-callback calls 2202, time in user-callback 1.19 sec

 sepatime6.918619540453436e13 3086 15
30.0
Stat(MathOptInterface.OPTIMAL, 30.0, 30.0, 0.0, 6.918619540453436e13, 1.060741, 2.05179500579834, 339, Main.CFLG.LEFPAV, "", #undef)
